(set-info :smt-lib-version 2.6)
(set-info :category "crafted")
(set-logic QF_FF)
(define-sort FF0 () (_ FiniteField 1031))
(declare-fun a () Bool)
(declare-fun b () Bool)
(declare-fun return_n0 () FF0)
(declare-fun mul_n3 () FF0)
(declare-fun a_n2 () FF0)
(declare-fun mul_n4 () FF0)
(declare-fun b_n1 () FF0)
(assert 
  (let ((let0 a))
  (let ((let1 b))
  (let ((let2 (=> let1 let0)))
  (let ((let3 (not let2)))
  (let ((let4 (ite let2 let1 let0)))
  (let ((let5 (and let4 let3)))
  (let ((let6 return_n0))
  (let ((let7 (as ff1 FF0)))
  (let ((let8 (= let7 let6)))
  (let ((let9 (= let8 let5)))
  (let ((let10 (as ff0 FF0)))
  (let ((let11 (= let10 let6)))
  (let ((let12 (or let8 let11)))
  (let ((let13 (and let12 let9)))
  (let ((let14 mul_n3))
  (let ((let15 a_n2))
  (let ((let16 mul_n4))
  (let ((let17 (ff.add let16 let15)))
  (let ((let18 (ff.mul let17 let14)))
  (let ((let19 (= let18 let6)))
  (let ((let20 (as ff1030 FF0)))
  (let ((let21 (ff.mul let15 let20)))
  (let ((let22 (ff.add let21 let7)))
  (let ((let23 b_n1))
  (let ((let24 (ff.mul let23 let22)))
  (let ((let25 (= let24 let14)))
  (let ((let26 (and let25 let19)))
  (let ((let27 (ite let0 let7 let10)))
  (let ((let28 (= let15 let27)))
  (let ((let29 (ite let1 let7 let10)))
  (let ((let30 (= let23 let29)))
  (let ((let31 (and let30 let28)))
  (let ((let32 (and let31 let26)))
  (let ((let33 (=> let32 let13)))
  (let ((let34 (not let33)))
  let34
)))))))))))))))))))))))))))))))))))
)
(check-sat)
